WARNING: for repeatability, setting FPU to use double precision
============================[ Problem Statistics ]=============================
|                                                                             |
|  Number of variables:       9433754                                         |
|  Number of clauses:        56650938                                         |
|  Parse time:                  16.67 s                                       |
|                                                                             |
c ============================[ Search Statistics ]==============================
c | Conflicts |          ORIGINAL         |          LEARNT          | Progress |
c |           |    Vars  Clauses Literals |    Limit  Clauses Lit/Cl |          |
c ===============================================================================
c Switched to VSIDS.
c Switched to LRB.
c Switched to VSIDS.
c Switched to LRB.
c Switched to VSIDS.
c Switched to LRB.
c Switched to VSIDS.
c Switched to LRB.
c Switched to VSIDS.
c Switched to LRB.
c Switched to VSIDS.
c Switched to LRB.
c Switched to VSIDS.
c Switched to LRB.
c Switched to VSIDS.
c Switched to LRB.
c Switched to VSIDS.
c Switched to LRB.
c Switched to VSIDS.
c Switched to LRB.
c Switched to VSIDS.
c Switched to LRB.
c Switched to VSIDS.
c Switched to LRB.
c Switched to VSIDS.
c ===============================================================================
restarts                  : 1697
conflicts                 : 367626         (186 /sec)
decisions                 : 3842035730     (0.00 % random) (1946679 /sec)
propagations              : 5231867113     (2650877 /sec)
conflict literals         : 5555560        (11.09 % deleted)

conflicts w/ DIP found    : 223570         (60.81 % of conflicts)
conflicts w/ dangerous DIP: 0              (0.00 % of conflicts)
conflicts w/ DIP-learning : 1              (0.00 % of conflicts)
decisions on ext vars     : 254            (0.00 % of decisions)
total ext vars            : 1           
tried delete ext vars     : 0           
deleted ext vars          : 0           
max ext vars              : 1           

Memory used               : 6617.00 MB
CPU time                  : 1973.64 s
DIP computation time      : 3.75268 s (0.19 % of total time)
ER_sel time               : 0.250492 s
ER_add time               : 2.4e-05 s
ER_delC time              : 0 s
ER_delV time              : 0 s
ER_sub time               : 0.886177 s
ER_stat time              : 0 s

INDETERMINATE
